SDVRP instances/custom_instances/p01_18_splitx10_0.vrp
NAME:p01_18_splitx10_
BEST_KNOWN: 0
COMMENT: 0
DIMENSION: 216
CAPACITY: 1600
EDGE_WEIGHT_FORMAT: FUNCTION
EDGE_WEIGHT_TYPE: EXACT_2D
NODE_COORD_SECTION
1 0.00000 0.00000
2 41 19
3 41 19
4 41 19
5 -2 -12
6 -2 -12
7 -2 -12
8 0 11
9 0 11
10 0 11
11 0 11
12 16 18
13 16 18
14 16 18
15 16 18
16 16 18
17 16 18
18 -25 -43
19 -25 -43
20 -25 -43
21 -25 -43
22 44 -15
23 44 -15
24 16 -7
25 16 -7
26 16 -7
27 16 -7
28 16 -7
29 16 -7
30 -47 -31
31 -47 -31
32 -7 -35
33 -7 -35
34 -7 -35
35 -7 -35
36 -7 -35
37 -7 -35
38 -7 -35
39 -32 -38
40 -32 -38
41 22 33
42 22 33
43 22 33
44 24 -27
45 24 -27
46 24 -27
47 24 -27
48 24 -27
49 -18 -8
50 -18 -8
51 -18 -8
52 -18 -8
53 15 -28
54 15 -28
55 15 -28
56 15 -28
57 15 -28
58 15 -28
59 -38 -20
60 -38 -20
61 -38 -20
62 -38 -20
63 4 43
64 4 43
65 14 -43
66 14 -43
67 14 -43
68 14 -43
69 -30 19
70 -30 19
71 -30 19
72 -30 19
73 -30 19
74 -30 19
75 -47 48
76 -47 48
77 -47 48
78 -47 48
79 34 -3
80 34 -3
81 34 -3
82 34 -3
83 -37 -6
84 -37 -6
85 -37 -6
86 -37 -6
87 -37 -6
88 -38 42
89 -38 42
90 20 -9
91 20 -9
92 27 46
93 27 46
94 27 46
95 27 46
96 27 46
97 27 46
98 -12 -40
99 -12 -40
100 13 -16
101 13 -16
102 13 -16
103 13 -16
104 13 -16
105 13 -16
106 13 -16
107 -28 38
108 -28 38
109 -28 38
110 -28 38
111 -28 38
112 -23 -44
113 -23 -44
114 -23 -44
115 -23 -44
116 -23 -44
117 -29 -25
118 -29 -25
119 -29 -25
120 -29 -25
121 -29 -25
122 -1 4
123 -1 4
124 -1 4
125 -1 4
126 -1 4
127 -1 4
128 9 0
129 9 0
130 9 0
131 -19 -17
132 -19 -17
133 -1 50
134 -1 50
135 -1 50
136 -1 50
137 -1 50
138 -17 13
139 -17 13
140 -17 13
141 -17 13
142 -17 13
143 -17 13
144 -17 13
145 -48 28
146 -48 28
147 -26 -11
148 -26 -11
149 -26 -11
150 -26 -11
151 26 42
152 26 42
153 26 42
154 26 42
155 26 42
156 26 42
157 -48 23
158 -48 23
159 -48 23
160 -48 23
161 -8 37
162 -8 37
163 -8 37
164 -8 37
165 -8 37
166 34 -45
167 34 -45
168 34 -45
169 34 -45
170 -8 -16
171 -8 -16
172 -8 -16
173 -8 -16
174 17 -6
175 17 -6
176 17 -6
177 17 -6
178 17 -6
179 17 -6
180 5 -17
181 5 -17
182 5 -17
183 5 -17
184 5 -17
185 34 47
186 34 47
187 34 47
188 34 47
189 26 -24
190 26 -24
191 26 -24
192 -9 -25
193 -9 -25
194 -9 -25
195 -9 -25
196 -9 -25
197 -9 -25
198 -37 30
199 -37 30
200 -37 30
201 -37 30
202 -37 30
203 -37 30
204 40 39
205 40 39
206 40 39
207 37 -45
208 37 -45
209 37 -45
210 37 -45
211 37 -45
212 39 -20
213 39 -20
214 39 -20
215 39 -20
216 39 -20
DEMAND_SECTION
1 0
2 320
3 16
4 14
5 320
6 160
7 80
8 320
9 160
10 16
11 4
12 320
13 320
14 16
15 16
16 16
17 12
18 320
19 160
20 16
21 14
22 320
23 80
24 320
25 80
26 16
27 16
28 16
29 2
30 320
31 320
32 160
33 80
34 16
35 16
36 16
37 16
38 6
39 160
40 80
41 320
42 320
43 160
44 320
45 160
46 80
47 16
48 14
49 160
50 80
51 16
52 14
53 320
54 80
55 16
56 16
57 16
58 12
59 160
60 80
61 16
62 4
63 320
64 80
65 320
66 160
67 16
68 4
69 160
70 80
71 16
72 16
73 16
74 12
75 320
76 320
77 16
78 4
79 160
80 16
81 16
82 8
83 320
84 160
85 80
86 16
87 4
88 320
89 10
90 320
91 160
92 320
93 320
94 16
95 16
96 16
97 12
98 320
99 160
100 320
101 160
102 80
103 16
104 16
105 16
106 2
107 320
108 320
109 80
110 16
111 4
112 320
113 320
114 80
115 16
116 4
117 320
118 16
119 16
120 16
121 2
122 320
123 160
124 80
125 16
126 16
127 8
128 320
129 160
130 10
131 320
132 160
133 320
134 320
135 16
136 16
137 8
138 320
139 160
140 80
141 16
142 16
143 16
144 2
145 320
146 320
147 320
148 80
149 16
150 14
151 320
152 80
153 16
154 16
155 16
156 12
157 160
158 80
159 16
160 4
161 320
162 160
163 16
164 16
165 8
166 160
167 80
168 16
169 4
170 320
171 320
172 16
173 14
174 320
175 80
176 16
177 16
178 16
179 12
180 320
181 160
182 80
183 16
184 14
185 320
186 160
187 16
188 14
189 320
190 320
191 160
192 320
193 320
194 16
195 16
196 16
197 12
198 320
199 16
200 16
201 16
202 16
203 6
204 320
205 320
206 10
207 320
208 16
209 16
210 16
211 2
212 320
213 160
214 80
215 16
216 4
DEPOT_SECTION
1
-1
EOF