SDVRP instances/custom_instances/p01_18_splitx10_0.sol
215 -2 1 3 204 205 203 184 186 185 187 93 94 96 95 -4 170 171 169 172 180 181 179 183 182 -5 131 147 149 148 146 84 85 83 82 86 48 51 49 50 -6 36 31 37 32 33 34 35 97 98 196 193 191 195 194 192 -9 8 136 135 133 134 132 63 62 40 -15 41 42 152 150 155 151 154 153 91 92 -24 26 27 23 28 25 90 89 175 176 177 178 174 173 129 128 -39 38 19 18 20 17 113 112 115 114 111 -57 55 56 53 52 54 206 207 208 210 209 168 166 165 167 66 67 64 65 -59 58 60 61 30 29 117 118 119 116 120 130 -81 78 80 79 21 22 214 212 215 211 213 99 101 105 103 -87 88 77 75 74 76 200 202 197 198 199 201 68 71 72 70 143 -100 104 102 45 43 44 46 47 188 189 190 -108 106 110 109 107 163 164 162 160 161 7 10 125 -123 126 124 122 121 13 16 12 11 14 127 -139 137 138 140 141 142 69 73 145 144 157 159 156 158 0 





OBJ=
1574.333
BEST_KNOWN=
0.000